(declare-fun temp61279_1 () (_ BitVec 64))
(declare-fun temp61279_2 () (_ BitVec 64))
(declare-fun var77740 () (_ BitVec 64))
(declare-fun k!0 () Bool)
(declare-fun ARGNAME_filter_NAMEEND_DIM () (_ BitVec 64))
(declare-fun ARGNAME_data_format_NAMEEND_STRFMT () (_ BitVec 64))
(declare-fun temp61279_3 () (_ BitVec 64))
(declare-fun ARGNAME_out_backprop_NAMEEND_DIM () (_ BitVec 64))
(declare-fun var77770 () (_ BitVec 64))
(declare-fun temp61279_4 () (_ BitVec 64))
(declare-fun temp61279_5 () (_ BitVec 64))
(declare-fun ARGNAME_filter_NAMEEND_DIMSIZE
             ()
             (Array (_ BitVec 64) (_ BitVec 64)))
(declare-fun temp61279_6 () (_ BitVec 64))
(declare-fun temp61279_7 () (_ BitVec 64))
(declare-fun temp61279_8 () (_ BitVec 64))
(declare-fun temp61279_9 () (_ BitVec 64))
(declare-fun temp61279_10 () (_ BitVec 64))
(declare-fun temp61279_11 () (_ BitVec 64))
(declare-fun temp61279_12 () (_ BitVec 64))
(declare-fun temp61279_13 () (_ BitVec 64))
(declare-fun temp61279_14 () (_ BitVec 64))
(declare-fun temp61279_15 () (_ BitVec 64))
(declare-fun temp61279_16 () (_ BitVec 64))
(declare-fun temp61279_17 () (_ BitVec 64))
(declare-fun temp61279_18 () (_ BitVec 64))
(declare-fun var77799 () (_ BitVec 64))
(declare-fun temp61279_19 () (_ BitVec 64))
(declare-fun ARGNAME_out_backprop_NAMEEND_DIMSIZE
             ()
             (Array (_ BitVec 64) (_ BitVec 64)))
(declare-fun temp61279_20 () (_ BitVec 64))
(declare-fun temp61279_21 () (_ BitVec 64))
(declare-fun temp61279_22 () (_ BitVec 64))
(declare-fun temp61279_23 () (_ BitVec 64))
(declare-fun temp61279_24 () (_ BitVec 64))
(declare-fun temp61279_25 () (_ BitVec 64))
(declare-fun temp61279_26 () (_ BitVec 64))
(declare-fun temp61279_27 () (_ BitVec 64))
(declare-fun temp61279_28 () (_ BitVec 64))
(declare-fun temp61279_29 () (_ BitVec 64))
(declare-fun temp61279_30 () (_ BitVec 64))
(declare-fun temp61279_31 () (_ BitVec 64))
(declare-fun temp61279_32 () (_ BitVec 64))
(declare-fun var77832 () (_ BitVec 64))
(declare-fun temp61279_33 () (_ BitVec 64))
(declare-fun temp61279_34 () (_ BitVec 64))
(declare-fun var77833 () (_ BitVec 64))
(declare-fun var77834 () (_ BitVec 64))
(declare-fun temp61279_35 () (_ BitVec 64))
(declare-fun temp61279_36 () (_ BitVec 64))
(declare-fun var275510 () (_ BitVec 64))
(declare-fun temp61279_37 () (_ BitVec 64))
(declare-fun var275528 () (_ BitVec 64))
(declare-fun temp61279_38 () (_ BitVec 64))
(declare-fun temp61279_39 () (_ BitVec 64))
(declare-fun var406582 () (_ BitVec 64))
(declare-fun temp61279_40 () (_ BitVec 64))
(declare-fun var406600 () (_ BitVec 64))
(declare-fun temp61279_41 () (_ BitVec 64))
(declare-fun temp61279_43 () (_ BitVec 64))
(declare-fun temp61279_42 () (_ BitVec 64))
(declare-fun temp61279_45 () (_ BitVec 64))
(declare-fun temp61279_44 () (_ BitVec 64))
(declare-fun temp61279_46 () (_ BitVec 64))
(declare-fun var537654 () (_ BitVec 64))
(declare-fun temp61279_47 () (_ BitVec 64))
(declare-fun var537672 () (_ BitVec 64))
(declare-fun temp61279_48 () (_ BitVec 64))
(declare-fun temp61279_50 () (_ BitVec 64))
(declare-fun temp61279_49 () (_ BitVec 64))
(declare-fun temp61279_52 () (_ BitVec 64))
(declare-fun temp61279_51 () (_ BitVec 64))
(declare-fun temp61279_54 () (_ BitVec 64))
(declare-fun temp61279_53 () (_ BitVec 64))
(declare-fun temp61279_56 () (_ BitVec 64))
(declare-fun temp61279_55 () (_ BitVec 64))
(declare-fun temp61279_58 () (_ BitVec 64))
(declare-fun temp61279_57 () (_ BitVec 64))
(declare-fun temp61279_59 () (_ BitVec 64))
(declare-fun var730187 () (_ BitVec 64))
(declare-fun var730166 () (_ BitVec 64))
(declare-fun var664598 () (_ BitVec 64))
(declare-fun temp61279_60 () (_ BitVec 64))
(declare-fun temp61279_61 () (_ BitVec 64))
(declare-fun var861259 () (_ BitVec 64))
(declare-fun var861238 () (_ BitVec 64))
(declare-fun var664611 () (_ BitVec 64))
(declare-fun temp61279_62 () (_ BitVec 64))
(declare-fun temp61279_63 () (_ BitVec 64))
(declare-fun var1057842 () (_ BitVec 64))
(declare-fun temp61279_64 () (_ BitVec 64))
(declare-fun var1123378 () (_ BitVec 64))
(declare-fun temp61279_65 () (_ BitVec 64))
(declare-fun var1188914 () (_ BitVec 64))
(assert (or (= ARGNAME_data_format_NAMEEND_STRFMT #x0000000000000000)
    (= ARGNAME_data_format_NAMEEND_STRFMT #x0000000000000001)
    (= ARGNAME_data_format_NAMEEND_STRFMT #x0000000000000002)
    (= ARGNAME_data_format_NAMEEND_STRFMT #x0000000000000003)
    (= ARGNAME_data_format_NAMEEND_STRFMT #x0000000000000004)
    (= ARGNAME_data_format_NAMEEND_STRFMT #x0000000000000005)))
(assert (= temp61279_1 #x0000000000000005))
(assert (= var77740
   (ite (= ARGNAME_filter_NAMEEND_DIM temp61279_1)
        #x0000000000000001
        #x0000000000000000)))
(assert (= temp61279_2 #x0000000000000001))
(assert (= var77740 temp61279_2))
(assert (= temp61279_3 #x0000000000000005))
(assert (= var77770
   (ite (= ARGNAME_out_backprop_NAMEEND_DIM temp61279_3)
        #x0000000000000001
        #x0000000000000000)))
(assert (= temp61279_4 #x0000000000000001))
(assert (= var77770 temp61279_4))
(assert (= temp61279_5 #x0000000000000000))
(assert (= temp61279_6 (select ARGNAME_filter_NAMEEND_DIMSIZE temp61279_5)))
(assert (= temp61279_7 #x0000000000000001))
(assert (= temp61279_8 (select ARGNAME_filter_NAMEEND_DIMSIZE temp61279_7)))
(assert (= temp61279_9 #x0000000000000002))
(assert (= temp61279_10 (select ARGNAME_filter_NAMEEND_DIMSIZE temp61279_9)))
(assert (= temp61279_11 #x0000000000000003))
(assert (= temp61279_12 (select ARGNAME_filter_NAMEEND_DIMSIZE temp61279_11)))
(assert (= temp61279_13 #x0000000000000004))
(assert (= temp61279_14 (select ARGNAME_filter_NAMEEND_DIMSIZE temp61279_13)))
(assert (= temp61279_15 #x0000000000000005))
(assert (= temp61279_16 (select ARGNAME_filter_NAMEEND_DIMSIZE temp61279_15)))
(assert (= temp61279_17 #x0000000000000003))
(assert (= temp61279_18 (select ARGNAME_filter_NAMEEND_DIMSIZE temp61279_17)))
(assert (= var77799 temp61279_18))
(assert (= temp61279_19 #x0000000000000000))
(assert (= temp61279_20 (select ARGNAME_out_backprop_NAMEEND_DIMSIZE temp61279_19)))
(assert (= temp61279_21 #x0000000000000001))
(assert (= temp61279_22 (select ARGNAME_out_backprop_NAMEEND_DIMSIZE temp61279_21)))
(assert (= temp61279_23 #x0000000000000002))
(assert (= temp61279_24 (select ARGNAME_out_backprop_NAMEEND_DIMSIZE temp61279_23)))
(assert (= temp61279_25 #x0000000000000003))
(assert (= temp61279_26 (select ARGNAME_out_backprop_NAMEEND_DIMSIZE temp61279_25)))
(assert (= temp61279_27 #x0000000000000004))
(assert (= temp61279_28 (select ARGNAME_out_backprop_NAMEEND_DIMSIZE temp61279_27)))
(assert (= temp61279_29 #x0000000000000005))
(assert (= temp61279_30 (select ARGNAME_out_backprop_NAMEEND_DIMSIZE temp61279_29)))
(assert (= temp61279_31 #x0000000000000004))
(assert (= temp61279_32 (select ARGNAME_out_backprop_NAMEEND_DIMSIZE temp61279_31)))
(assert (= var77832 temp61279_32))
(assert (= temp61279_33 #x0000000000000004))
(assert (= temp61279_34 (select ARGNAME_filter_NAMEEND_DIMSIZE temp61279_33)))
(assert (= var77833 temp61279_34))
(assert (= var77834 (ite (= var77832 var77833) #x0000000000000001 #x0000000000000000)))
(assert (= temp61279_35 #x0000000000000001))
(assert (= var77834 temp61279_35))
(assert (= temp61279_36 #x0000000000000001))
(assert (= var275510 temp61279_36))
(assert (= temp61279_37 #x0000000000000001))
(assert (= var275528
   (ite (bvslt var275510 temp61279_37) #x0000000000000001 #x0000000000000000)))
(assert (= temp61279_38 #x0000000000000000))
(assert (= var275528 temp61279_38))
(assert (= temp61279_39 #x0000000000000001))
(assert (= var406582 temp61279_39))
(assert (= temp61279_40 #x0000000000000001))
(assert (= var406600
   (ite (bvslt var406582 temp61279_40) #x0000000000000001 #x0000000000000000)))
(assert (= temp61279_41 #x0000000000000000))
(assert (= var406600 temp61279_41))
(assert (= temp61279_43 #x0000000000000000))
(assert (= temp61279_42 temp61279_43))
(assert (= temp61279_45 #x0000000000000000))
(assert (= temp61279_44 temp61279_45))
(assert (= temp61279_46 #x0000000000000001))
(assert (= var537654 temp61279_46))
(assert (= temp61279_47 #x0000000000000001))
(assert (= var537672
   (ite (bvslt var537654 temp61279_47) #x0000000000000001 #x0000000000000000)))
(assert (= temp61279_48 #x0000000000000000))
(assert (= var537672 temp61279_48))
(assert (= temp61279_50 #x0000000000000000))
(assert (= temp61279_49 temp61279_50))
(assert (= temp61279_52 #x0000000000000000))
(assert (= temp61279_51 temp61279_52))
(assert (= temp61279_54 #x00000000000000ff))
(assert (= temp61279_53 temp61279_54))
(assert (= temp61279_56 #x00000000000000ff))
(assert (= temp61279_55 temp61279_56))
(assert (= temp61279_58 #x00000000000000ff))
(assert (= temp61279_57 temp61279_58))
(assert (= temp61279_59 #x0000000000000000))
(assert (= var730187 temp61279_59))
(assert (= var730166 var730187))
(assert (= var664598 var730166))
(assert (= temp61279_60 #x0000000000000000))
(assert (= var664598 temp61279_60))
(assert (= temp61279_61 #x0000000000000000))
(assert (= var861259 temp61279_61))
(assert (= var861238 var861259))
(assert (= var664611 var861238))
(assert (= temp61279_62 #x0000000000000000))
(assert (= var664611 temp61279_62))
(assert (= temp61279_63 #x0000000000008000))
(assert (= var1057842 temp61279_63))
(assert (= temp61279_64 #x0000000000040000))
(assert (= var1123378 temp61279_64))
(assert (= temp61279_65 #x0000000000200000))
(assert (= var1188914 temp61279_65))
(model-add temp61279_1 () (_ BitVec 64) #x0000000000000005)
(model-add temp61279_2 () (_ BitVec 64) #x0000000000000001)
(model-add var77740 () (_ BitVec 64) #x0000000000000001)
(model-del k!0)
(model-add ARGNAME_filter_NAMEEND_DIM
           ()
           (_ BitVec 64)
           (ite k!0 #x0000000000000005 (bvnot #x0000000000000005)))


